\ENCODING=ISO-8859-1
\Problem name: ilog.cplex

Maximize
 obj: 14 x_ijk_0_0_0 + 14 x_ijk_0_0_1 + 15 x_ijk_0_1_0 + 15 x_ijk_0_1_1
      + x_ijk_0_2_0 + x_ijk_0_2_1 + 5 x_ijk_1_0_0 + 5 x_ijk_1_0_1
      + 16 x_ijk_1_1_0 + 16 x_ijk_1_1_1 + 15 x_ijk_2_0_0 + 15 x_ijk_2_0_1
      + 7 x_ijk_2_1_0 + 7 x_ijk_2_1_1 + 18 x_ijk_2_2_0 + 18 x_ijk_2_2_1
      + 11 x_ijk_2_3_0 + 11 x_ijk_2_3_1 + 16 x_ijk_2_4_0 + 16 x_ijk_2_4_1
      + 15 x_ijk_3_0_0 + 15 x_ijk_3_0_1 + 7 x_ijk_3_1_0 + 7 x_ijk_3_1_1
      + 9 x_ijk_3_2_0 + 9 x_ijk_3_2_1 + 3 x_ijk_3_3_0 + 3 x_ijk_3_3_1
      + 15 x_ijk_4_0_0 + 15 x_ijk_4_0_1 + 2 x_ijk_4_1_0 + 2 x_ijk_4_1_1
      + 20 x_ijk_4_2_0 + 20 x_ijk_4_2_1 + 10 x_ijk_4_3_0 + 10 x_ijk_4_3_1
      + 2 x_ijk_5_0_0 + 2 x_ijk_5_0_1 + 4 x_ijk_5_1_0 + 4 x_ijk_5_1_1
      + 7 x_ijk_5_2_0 + 7 x_ijk_5_2_1
Subject To
 c1:  30 x_ijk_0_0_0 + 18 x_ijk_0_1_0 + 18 x_ijk_0_2_0 + 6 x_ijk_1_0_0
      + 25 x_ijk_1_1_0 + 20 x_ijk_2_0_0 + 28 x_ijk_2_1_0 + 37 x_ijk_2_2_0
      + 17 x_ijk_2_3_0 + 25 x_ijk_2_4_0 + 11 x_ijk_3_0_0 + 10 x_ijk_3_1_0
      + 10 x_ijk_3_2_0 + 5 x_ijk_3_3_0 + 8 x_ijk_4_0_0 + 14 x_ijk_4_1_0
      + 35 x_ijk_4_2_0 + 14 x_ijk_4_3_0 + 6 x_ijk_5_0_0 + 40 x_ijk_5_1_0
      + 10 x_ijk_5_2_0 - Rgc1  = -2147483647
 c2:  38 x_ijk_0_0_1 + 16 x_ijk_0_1_1 + 24 x_ijk_0_2_1 + 4 x_ijk_1_0_1
      + 12 x_ijk_1_1_1 + 29 x_ijk_2_0_1 + 18 x_ijk_2_1_1 + 28 x_ijk_2_2_1
      + 11 x_ijk_2_3_1 + 40 x_ijk_2_4_1 + 3 x_ijk_3_0_1 + 6 x_ijk_3_1_1
      + 39 x_ijk_3_2_1 + x_ijk_3_3_1 + 20 x_ijk_4_0_1 + 13 x_ijk_4_1_1
      + 2 x_ijk_4_2_1 + 24 x_ijk_4_3_1 + 16 x_ijk_5_0_1 + 27 x_ijk_5_1_1
      + 26 x_ijk_5_2_1 - Rgc2  = -2147483647
 c3:  x_ijk_0_0_0 + x_ijk_0_1_0 + x_ijk_0_2_0 - Rgc3  = -2147483647
 c4:  x_ijk_0_0_1 + x_ijk_0_1_1 + x_ijk_0_2_1 - Rgc4  = -2147483647
 c5:  x_ijk_1_0_0 + x_ijk_1_1_0 - Rgc5  = -2147483647
 c6:  x_ijk_1_0_1 + x_ijk_1_1_1 - Rgc6  = -2147483647
 c7:  x_ijk_2_0_0 + x_ijk_2_1_0 + x_ijk_2_2_0 + x_ijk_2_3_0 + x_ijk_2_4_0
      - Rgc7  = -2147483647
 c8:  x_ijk_2_0_1 + x_ijk_2_1_1 + x_ijk_2_2_1 + x_ijk_2_3_1 + x_ijk_2_4_1
      - Rgc8  = -2147483647
 c9:  x_ijk_3_0_0 + x_ijk_3_1_0 + x_ijk_3_2_0 + x_ijk_3_3_0 - Rgc9
       = -2147483647
 c10: x_ijk_3_0_1 + x_ijk_3_1_1 + x_ijk_3_2_1 + x_ijk_3_3_1 - Rgc10
       = -2147483647
 c11: x_ijk_4_0_0 + x_ijk_4_1_0 + x_ijk_4_2_0 + x_ijk_4_3_0 - Rgc11
       = -2147483647
 c12: x_ijk_4_0_1 + x_ijk_4_1_1 + x_ijk_4_2_1 + x_ijk_4_3_1 - Rgc12
       = -2147483647
 c13: x_ijk_5_0_0 + x_ijk_5_1_0 + x_ijk_5_2_0 - Rgc13  = -2147483647
 c14: x_ijk_5_0_1 + x_ijk_5_1_1 + x_ijk_5_2_1 - Rgc14  = -2147483647
Bounds
 0 <= x_ijk_0_0_0 <= 1
 0 <= x_ijk_0_0_1 <= 1
 0 <= x_ijk_0_1_0 <= 1
 0 <= x_ijk_0_1_1 <= 1
 0 <= x_ijk_0_2_0 <= 1
 0 <= x_ijk_0_2_1 <= 1
 0 <= x_ijk_1_0_0 <= 1
 0 <= x_ijk_1_0_1 <= 1
 0 <= x_ijk_1_1_0 <= 1
 0 <= x_ijk_1_1_1 <= 1
 0 <= x_ijk_2_0_0 <= 1
 0 <= x_ijk_2_0_1 <= 1
 0 <= x_ijk_2_1_0 <= 1
 0 <= x_ijk_2_1_1 <= 1
 0 <= x_ijk_2_2_0 <= 1
 0 <= x_ijk_2_2_1 <= 1
 0 <= x_ijk_2_3_0 <= 1
 0 <= x_ijk_2_3_1 <= 1
 0 <= x_ijk_2_4_0 <= 1
 0 <= x_ijk_2_4_1 <= 1
 0 <= x_ijk_3_0_0 <= 1
 0 <= x_ijk_3_0_1 <= 1
 0 <= x_ijk_3_1_0 <= 1
 0 <= x_ijk_3_1_1 <= 1
 0 <= x_ijk_3_2_0 <= 1
 0 <= x_ijk_3_2_1 <= 1
 0 <= x_ijk_3_3_0 <= 1
 0 <= x_ijk_3_3_1 <= 1
 0 <= x_ijk_4_0_0 <= 1
 0 <= x_ijk_4_0_1 <= 1
 0 <= x_ijk_4_1_0 <= 1
 0 <= x_ijk_4_1_1 <= 1
 0 <= x_ijk_4_2_0 <= 1
 0 <= x_ijk_4_2_1 <= 1
 0 <= x_ijk_4_3_0 <= 1
 0 <= x_ijk_4_3_1 <= 1
 0 <= x_ijk_5_0_0 <= 1
 0 <= x_ijk_5_0_1 <= 1
 0 <= x_ijk_5_1_0 <= 1
 0 <= x_ijk_5_1_1 <= 1
 0 <= x_ijk_5_2_0 <= 1
 0 <= x_ijk_5_2_1 <= 1
 0 <= Rgc1 <= 2147483725
 0 <= Rgc2 <= 2147483687
 0 <= Rgc3 <= 2147483648
 0 <= Rgc4 <= 2147483648
 0 <= Rgc5 <= 2147483648
 0 <= Rgc6 <= 2147483648
 0 <= Rgc7 <= 2147483648
 0 <= Rgc8 <= 2147483648
 0 <= Rgc9 <= 2147483648
 0 <= Rgc10 <= 2147483648
 0 <= Rgc11 <= 2147483648
 0 <= Rgc12 <= 2147483648
 0 <= Rgc13 <= 2147483648
 0 <= Rgc14 <= 2147483648
Generals
 x_ijk_0_0_0  x_ijk_0_0_1  x_ijk_0_1_0  x_ijk_0_1_1  x_ijk_0_2_0  x_ijk_0_2_1 
 x_ijk_1_0_0  x_ijk_1_0_1  x_ijk_1_1_0  x_ijk_1_1_1  x_ijk_2_0_0  x_ijk_2_0_1 
 x_ijk_2_1_0  x_ijk_2_1_1  x_ijk_2_2_0  x_ijk_2_2_1  x_ijk_2_3_0  x_ijk_2_3_1 
 x_ijk_2_4_0  x_ijk_2_4_1  x_ijk_3_0_0  x_ijk_3_0_1  x_ijk_3_1_0  x_ijk_3_1_1 
 x_ijk_3_2_0  x_ijk_3_2_1  x_ijk_3_3_0  x_ijk_3_3_1  x_ijk_4_0_0  x_ijk_4_0_1 
 x_ijk_4_1_0  x_ijk_4_1_1  x_ijk_4_2_0  x_ijk_4_2_1  x_ijk_4_3_0  x_ijk_4_3_1 
 x_ijk_5_0_0  x_ijk_5_0_1  x_ijk_5_1_0  x_ijk_5_1_1  x_ijk_5_2_0  x_ijk_5_2_1 
End
